PatchBench/BenchmarksExist/qemu/CWE-189-Numeric-Errors/CVE_2013_4148_71f7fe48e10a8437c9d42d859389f37157f59980/cveSnippetExist32.smt2
; benchmark generated from python API
(set-info :status unknown)
(declare-fun rdi () (_ BitVec 64))
(assert
 (let ((?x6 ((_ extract 31 0) rdi)))
 (let (($x60 (bvsle ?x6 (_ bv64 32))))
 (let (($x53 (bvule ((_ extract 6 0) rdi) (_ bv64 7))))
 (let (($x50 (= ((_ extract 31 7) rdi) (_ bv0 25))))
 (let (($x522 (and (or (not (and $x50 $x53)) (and $x50 $x53 (= ?x6 (_ bv0 32)))) (or (not $x60) (and $x60 (= ?x6 (_ bv0 32)))))))
 (let (($x703 (or (and $x50 $x53 (= ?x6 (_ bv1 32)) $x60) (and $x50 $x53 (= ?x6 (_ bv17 32)) $x60) (and $x50 $x53 (= ?x6 (_ bv49 32)) $x60) (and $x50 $x53 (= ?x6 (_ bv51 32)) $x60) (and $x50 $x53 (= ?x6 (_ bv19 32)) $x60) (and $x50 $x53 (= ?x6 (_ bv3 32)) $x60) (and $x50 $x53 (= ?x6 (_ bv35 32)) $x60) (and $x50 $x53 (= ?x6 (_ bv39 32)) $x60) (and $x50 $x53 (= ?x6 (_ bv33 32)) $x60) (and $x50 $x53 (= ?x6 (_ bv5 32)) $x60) (and $x50 $x53 (= ?x6 (_ bv7 32)) $x60) (and $x50 $x53 (= ?x6 (_ bv15 32)) $x60) (and $x50 $x53 (= ?x6 (_ bv47 32)) $x60) (and $x50 $x53 (= ?x6 (_ bv63 32)) $x60) (and $x50 $x53 (= ?x6 (_ bv59 32)) $x60) (and $x50 $x53 (= ?x6 (_ bv57 32)) $x60) (and $x50 $x53 (= ?x6 (_ bv25 32)) $x60) (and $x50 $x53 (= ?x6 (_ bv27 32)) $x60) (and $x50 $x53 (= ?x6 (_ bv11 32)) $x60) (and $x50 $x53 (= ?x6 (_ bv31 32)) $x60) (and $x50 $x53 (= ?x6 (_ bv29 32)) $x60) (and $x50 $x53 (= ?x6 (_ bv61 32)) $x60) (and $x50 $x53 (= ?x6 (_ bv53 32)) $x60) (and $x50 $x53 (= ?x6 (_ bv37 32)) $x60) (and $x50 $x53 (= ?x6 (_ bv21 32)) $x60) (and $x50 $x53 (= ?x6 (_ bv23 32)) $x60) (and $x50 $x53 (= ?x6 (_ bv55 32)) $x60) (and $x50 $x53 (= ?x6 (_ bv43 32)) $x60) (and $x50 $x53 (= ?x6 (_ bv9 32)) $x60) (and $x50 $x53 (= ?x6 (_ bv41 32)) $x60) (and $x50 $x53 (= ?x6 (_ bv45 32)) $x60) (and $x50 $x53 (= ?x6 (_ bv13 32)) $x60) (and $x50 $x53 (= ?x6 (_ bv32 32)) $x60) (and $x50 $x53 (= ?x6 (_ bv16 32)) $x60) (and $x50 $x53 (= ?x6 (_ bv48 32)) $x60) (and $x50 $x53 (= ?x6 (_ bv64 32)) $x60) $x522 (and $x50 $x53 (= ?x6 (_ bv8 32)) $x60) (and $x50 $x53 (= ?x6 (_ bv40 32)) $x60) (and $x50 $x53 (= ?x6 (_ bv24 32)) $x60) (and $x50 $x53 (= ?x6 (_ bv56 32)) $x60) (and $x50 $x53 (= ?x6 (_ bv4 32)) $x60) (and $x50 $x53 (= ?x6 (_ bv36 32)) $x60) (and $x50 $x53 (= ?x6 (_ bv20 32)) $x60) (and $x50 $x53 (= ?x6 (_ bv52 32)) $x60) (and $x50 $x53 (= ?x6 (_ bv12 32)) $x60) (and $x50 $x53 (= ?x6 (_ bv44 32)) $x60) (and $x50 $x53 (= ?x6 (_ bv28 32)) $x60) (and $x50 $x53 (= ?x6 (_ bv60 32)) $x60) (and $x50 $x53 (= ?x6 (_ bv2 32)) $x60) (and $x50 $x53 (= ?x6 (_ bv34 32)) $x60) (and $x50 $x53 (= ?x6 (_ bv18 32)) $x60) (and $x50 $x53 (= ?x6 (_ bv50 32)) $x60) (and $x50 $x53 (= ?x6 (_ bv6 32)) $x60) (and $x50 $x53 (= ?x6 (_ bv38 32)) $x60) (and $x50 $x53 (= ?x6 (_ bv22 32)) $x60) (and $x50 $x53 (= ?x6 (_ bv54 32)) $x60) (and $x50 $x53 (= ?x6 (_ bv10 32)) $x60) (and $x50 $x53 (= ?x6 (_ bv42 32)) $x60) (and $x50 $x53 (= ?x6 (_ bv26 32)) $x60) (and $x50 $x53 (= ?x6 (_ bv58 32)) $x60) (and $x50 $x53 (= ?x6 (_ bv14 32)) $x60) (and $x50 $x53 (= ?x6 (_ bv46 32)) $x60) (and $x50 $x53 (= ?x6 (_ bv30 32)) $x60) (and $x50 $x53 (= ?x6 (_ bv62 32)) $x60))))
 (and $x703))))))))
(check-sat)
